! engrad MP2 def2-TZVP TightSCF FrozenCore 
%pal nprocs 24 end

%maxcore 8000

%scf    ConvForced true end 
*xyz 0 1 
O   -1.351094339878829 0.2953023025911181 1.950015681796117
H   -1.0782088981911921 1.1079624401148174 1.6170555040908758
C   -2.681753811959076 0.1290074838809651 1.3702713923110705
H   -2.6886280054600387 -0.4743727414747135 0.4280463350094949
H   -3.1006465075003824 1.0811611164831578 1.1253496349598988
H   -3.486125665048651 -0.30458166123444574 2.04666503532604
O   -0.9323855607517205 -2.613982241623974 -0.6250947216807019
H   -0.9949082216905104 -2.6706517738222013 0.29597240343442766
C   -0.4093849516931407 -3.825046165778461 -1.1769464605795696
H   0.18478291518555093 -4.328722230037332 -0.4194685644540573
H   0.15599910830914662 -3.481431342675159 -2.0389171176024017
H   -1.218391336694515 -4.526496032733969 -1.4194877017088627
O   1.706060579314433 1.7951844372214527 -0.6317217295281647
H   0.9830998441385144 1.125703751980046 -0.5282096790933922
C   1.1513754486227366 2.892793861989987 -1.316756520632332
H   0.3931519382103387 2.5365046699775675 -2.0472518316934587
H   1.9166790270710838 3.4809330649036183 -1.7564759201072073
H   0.5840690444896038 3.5112069030867117 -0.6373990163638565
O   -0.020242728107723096 -0.14848651923245326 -1.466411561322242
H   -0.21202269328899426 -1.0338161119412315 -1.1758519248461983
C   0.6913917065687338 -0.1918104879747557 -2.6573999286022545
H   1.703514477515624 -0.490715400743633 -2.521795008309846
H   0.8160909868224292 0.6809204157153331 -3.3226179885660265
H   0.266872222624285 -0.8805966744053165 -3.390435440995875
O   0.918590525349852 1.7138251070156545 1.9434385444522113
H   1.8228103930501651 1.8484370909239474 1.6091879571844832
C   0.9439785982732298 1.3003892878035574 3.312501360084639
H   1.2343004333677168 2.098783418343618 3.9390530390838565
H   1.6291436426136117 0.37376798957183655 3.412300423232778
H   -0.0569679540740599 1.007464761730025 3.5096549363666236
O   -0.821517606744802 -2.3769151558756385 2.0251442137332285
H   -0.6553781813727595 -1.4219542245627705 2.0887880083873505
C   0.294838501617959 -3.143608442784531 2.4554128983431545
H   -0.08478543798313906 -4.021582541527181 2.933974780581019
H   0.8949819739830153 -2.5913306446810673 3.143251222441
H   0.9579362663059743 -3.4747907801879045 1.6658112637555678
*
