! engrad MP2 def2-TZVP TightSCF FrozenCore 
%pal nprocs 24 end

%maxcore 8000

%scf    ConvForced true end 
*xyz 0 1 
O   0.11574908099984253 -4.020886466707639 -0.8312133344727797
H   -0.4932686905887901 -3.322275024278798 -1.0489322356697623
H   1.0121798082207725 -3.678131831388587 -0.5736327960935279
O   -1.8998075080824437 -0.6608477085156723 -1.2498878311584527
H   -2.2551348816947376 -0.40662319974263583 -2.1320750071365224
H   -2.2287581720807954 0.0409007931685699 -0.6181899863829093
O   -2.265574705407698 1.6310886578093247 0.3895447313302952
H   -1.409790285070239 1.911103971674959 0.35119615073814936
H   -2.869776653715304 2.3599384656168345 0.7200384904527799
O   2.8204516673679287 0.8005570826712131 1.5696951411853663
H   2.1338922708396093 0.23756449626925147 1.1561782002730348
H   2.7546068834332207 0.6731204630583366 2.5507938663767957
O   0.785745149410634 -0.3516698398274208 -0.3784906922936391
H   -0.12631698604801728 -0.6599843949718338 -0.7795952997496547
H   1.410372590631806 -0.7182071149913153 -1.0345726541472724
O   0.4679728334696966 2.4824768434861264 0.537005627103599
H   0.7791654133794514 3.011154390380542 1.280650498970968
H   1.1268631032362326 1.8251139927523106 0.30663731494580915
*
