! engrad MP2 def2-TZVP TightSCF FrozenCore 
%pal nprocs 24 end

%maxcore 8000

%scf    ConvForced true end 
*xyz 0 1 
O   0.13207901920053314 -4.019752561729709 -0.8481050599989749
H   -0.4445053404199627 -3.2403817450904384 -0.9886641270710957
H   0.955502114775185 -3.860519810330491 -0.4489924768379655
O   -1.916086042752625 -0.6724890263378599 -1.2497878888409737
H   -2.1929869612310946 -0.4210306002026004 -2.109838926194688
H   -2.2491974462505993 -0.017389097081815724 -0.6271728097683146
O   -2.253422560087622 1.6301547236127665 0.39337599808730644
H   -1.2567170110500259 1.9772759034545633 0.3540903220549228
H   -2.8490618368660234 2.294532585185848 0.6920400852035506
O   2.823583807643499 0.7754422574497348 1.5792319513198756
H   2.171260050482357 0.14891256413465076 1.2778920829479103
H   2.803151102528817 0.5647218676264737 2.530651309713123
O   0.7744868515761163 -0.3807916693766465 -0.35322609931837395
H   -0.0028094629026471987 -0.73670037689979 -0.6904951748888338
H   1.4419048571708901 -0.6669733848018129 -0.9623860073286084
O   0.4481501853363336 2.4930490188496908 0.5368915171177246
H   0.9059769985496506 3.067130918005166 1.1586887185931087
H   1.1358062355862324 1.8432039773954365 0.3489497256005558
*
