! engrad MP2 def2-TZVP TightSCF FrozenCore 
%pal nprocs 24 end

%maxcore 8000

%scf    ConvForced true end 
*xyz 0 1 
O   -2.0782172887764947 0.09326023458783225 2.801955058437034
H   -1.1965038568607982 0.3971618234846834 2.7794076054365946
C   -3.0354815627910217 0.5876002753935105 1.8732814773710154
H   -3.9724466346945695 0.15328211200973094 2.1815124074375194
H   -2.833183386590176 0.22515151716887202 0.9005249583621178
H   -3.1954587207515326 1.6304969614693086 1.802312972667808
O   0.5154378618502846 -1.7570444443484756 -1.6972651655667523
H   0.26915660710250167 -1.5120506686737465 -0.8116849951093539
C   0.24214941658477246 -3.1448987908999846 -1.798154221795337
H   0.1009243117348704 -3.3308777575683948 -2.854356379897984
H   -0.6962215206677189 -3.3217693430524404 -1.2280131729973303
H   0.9924263546283161 -3.7446496497375317 -1.28092493132612
O   0.2603487203311081 1.9721105685128872 -0.4371726591624052
H   -0.12835833217087353 1.2526336494285963 -1.0849317172480613
C   1.5063715938244906 2.390038722670703 -0.9802194215856972
H   1.490463117267024 2.5793190555074395 -2.0804230273709163
H   2.324901761326132 1.7165076796256655 -0.7360616286341592
H   1.5853664105759262 3.3538317654204253 -0.46795908976230316
O   0.3592327570770357 0.7324420285105269 -3.124377430545969
H   0.704684242756796 -0.17377330793638937 -2.9099639962559207
C   -0.011221023544043621 0.6464755238008968 -4.490708602807641
H   0.7726049906317894 0.3025190720535847 -5.17807517076114
H   -0.3780652097467544 1.6472291073633851 -4.908944714802986
H   -0.8196893369538368 -0.11905235282295494 -4.777545079820133
O   0.6051327998407179 0.7905178090430639 2.226782383265095
H   0.2037433005479826 1.2895404985753662 1.4827073703420142
C   1.0266234583489564 1.629494898387766 3.2339666370774722
H   1.540197210862149 1.0194475811795995 3.9097455175075195
H   0.08368863579025042 2.0117550181075305 3.7533384338000877
H   1.5915950977883784 2.5008303220986345 2.9001502104915757
O   -0.3303282203885331 -1.8505276328780091 0.9753157803277221
H   -0.6576183559530608 -1.180297222664212 1.5841122743174607
C   1.0233964458007865 -2.1345069327173216 1.48408266454773
H   1.6393685533057238 -1.2721229644518526 1.4079951350170468
H   1.4203156054544517 -2.962245137492523 0.874065737621261
H   1.0331350969438824 -2.4838214111972117 2.576229876389803
*
